Normalized Data/p02_22_normalized_splitx10_0.vrp
NAME:p02_22_NORMALIZED_splitx10_
BEST_KNOWN: 0
COMMENT: 0
DIMENSION: 280
CAPACITY: 1000
EDGE_WEIGHT_FORMAT: FUNCTION
EDGE_WEIGHT_TYPE: EXACT_2D
NODE_COORD_SECTION
1 0.00000 0.00000
2 41 -35
3 41 -35
4 41 -35
5 41 -35
6 20 -37
7 20 -37
8 20 -37
9 -28 8
10 -28 8
11 -28 8
12 -28 8
13 33 14
14 33 14
15 33 14
16 33 14
17 28 9
18 28 9
19 28 9
20 15 16
21 15 16
22 15 16
23 15 16
24 15 16
25 -28 35
26 -28 35
27 -28 35
28 -28 35
29 -28 35
30 -26 20
31 -26 20
32 -26 20
33 -35 21
34 -35 21
35 -34 -45
36 -34 -45
37 18 44
38 18 44
39 18 44
40 11 -33
41 11 -33
42 -41 48
43 -41 48
44 -41 48
45 -41 48
46 -38 21
47 -38 21
48 9 -38
49 9 -38
50 9 -38
51 9 -38
52 21 -16
53 21 -16
54 21 -16
55 -1 1
56 -1 1
57 -1 1
58 -1 1
59 -1 1
60 -15 -41
61 -15 -41
62 -15 -41
63 -15 -41
64 -15 -41
65 -15 -41
66 7 -12
67 7 -12
68 -6 -20
69 -6 -20
70 -6 -20
71 -6 -20
72 -6 -20
73 -19 -50
74 -19 -50
75 -19 -50
76 -19 -50
77 -19 -50
78 -19 -50
79 14 42
80 14 42
81 14 42
82 14 42
83 -15 -11
84 -15 -11
85 -15 -11
86 -15 -11
87 -15 -11
88 42 -12
89 42 -12
90 42 -12
91 42 -12
92 39 41
93 39 41
94 14 -44
95 14 -44
96 14 -44
97 14 -44
98 -29 28
99 -29 28
100 11 47
101 11 47
102 11 47
103 11 47
104 -40 -40
105 -40 -40
106 -40 -40
107 -40 -40
108 -40 -40
109 22 -25
110 22 -25
111 22 -25
112 22 -25
113 -41 32
114 48 8
115 48 8
116 48 8
117 40 4
118 40 4
119 40 4
120 7 -19
121 7 -19
122 7 -19
123 32 46
124 -39 13
125 -39 13
126 -39 13
127 -39 13
128 -39 13
129 -29 0
130 -29 0
131 -29 0
132 -29 0
133 29 -17
134 29 -17
135 29 -17
136 21 -30
137 21 -30
138 6 -46
139 6 -46
140 6 -46
141 6 -46
142 6 -46
143 -6 37
144 -6 37
145 -6 37
146 -6 37
147 22 48
148 22 48
149 22 48
150 22 48
151 -42 -1
152 -42 -1
153 -42 -1
154 -42 -1
155 44 -34
156 44 -34
157 44 -34
158 -17 49
159 -17 49
160 -17 49
161 -17 49
162 37 37
163 37 37
164 37 37
165 -44 -2
166 -44 -2
167 -44 -2
168 -44 -2
169 -44 -2
170 0 32
171 0 32
172 38 25
173 38 25
174 38 25
175 38 25
176 38 25
177 38 25
178 3 11
179 3 11
180 3 11
181 -36 39
182 -36 39
183 -36 39
184 -9 3
185 -9 3
186 -9 3
187 -9 3
188 -9 3
189 -9 3
190 -30 -44
191 -30 -44
192 -30 -44
193 -30 -44
194 -30 -44
195 -7 46
196 -7 46
197 -7 46
198 -7 46
199 -7 46
200 -7 46
201 -7 46
202 -40 -17
203 -40 -17
204 -23 3
205 -23 3
206 -23 3
207 -23 3
208 -23 3
209 -23 3
210 -7 28
211 -7 28
212 -7 28
213 8 -50
214 8 -50
215 8 -50
216 8 -50
217 10 -8
218 10 -8
219 10 -8
220 10 -8
221 39 -33
222 39 -33
223 39 -33
224 39 -33
225 -19 -33
226 -19 -33
227 -19 -33
228 -19 -33
229 -19 -33
230 -19 -33
231 -15 -31
232 -15 -31
233 -15 -31
234 -15 -31
235 -15 -31
236 -15 -31
237 -4 7
238 -4 7
239 -4 7
240 -4 7
241 -4 7
242 1 32
243 1 32
244 1 32
245 8 5
246 8 5
247 -38 43
248 -38 43
249 -38 43
250 -40 -30
251 -40 -30
252 -40 -30
253 10 19
254 10 19
255 10 19
256 10 19
257 10 19
258 -19 2
259 -19 2
260 -19 2
261 47 31
262 47 31
263 47 31
264 -3 27
265 -3 27
266 -3 27
267 -3 27
268 -3 27
269 -3 27
270 -39 -2
271 -39 -2
272 -39 -2
273 -45 18
274 -45 18
275 -45 18
276 13 10
277 -7 43
278 -7 43
279 -7 43
280 -7 43
DEMAND_SECTION
1 0
2 100
3 50
4 10
5 10
6 200
7 100
8 50
9 100
10 50
11 10
12 10
13 200
14 200
15 10
16 10
17 100
18 50
19 10
20 200
21 100
22 50
23 10
24 10
25 200
26 100
27 50
28 10
29 10
30 200
31 10
32 10
33 200
34 50
35 200
36 200
37 200
38 10
39 10
40 100
41 50
42 200
43 200
44 10
45 10
46 200
47 200
48 200
49 200
50 10
51 10
52 200
53 200
54 10
55 100
56 50
57 10
58 10
59 10
60 200
61 200
62 50
63 10
64 10
65 10
66 100
67 50
68 200
69 200
70 50
71 10
72 10
73 200
74 200
75 10
76 10
77 10
78 10
79 200
80 10
81 10
82 10
83 100
84 50
85 10
86 10
87 10
88 200
89 50
90 10
91 10
92 200
93 50
94 200
95 200
96 50
97 10
98 200
99 200
100 200
101 50
102 10
103 10
104 200
105 10
106 10
107 10
108 10
109 100
110 50
111 10
112 10
113 200
114 200
115 200
116 100
117 100
118 10
119 10
120 200
121 10
122 10
123 200
124 200
125 10
126 10
127 10
128 10
129 200
130 50
131 10
132 10
133 200
134 10
135 10
136 200
137 200
138 200
139 10
140 10
141 10
142 10
143 100
144 50
145 10
146 10
147 100
148 50
149 10
150 10
151 200
152 100
153 10
154 10
155 200
156 200
157 10
158 200
159 200
160 50
161 10
162 200
163 100
164 50
165 200
166 200
167 50
168 10
169 10
170 100
171 50
172 200
173 100
174 10
175 10
176 10
177 10
178 100
179 10
180 10
181 100
182 50
183 10
184 200
185 100
186 50
187 10
188 10
189 10
190 200
191 200
192 50
193 10
194 10
195 200
196 200
197 50
198 10
199 10
200 10
201 10
202 200
203 200
204 200
205 100
206 10
207 10
208 10
209 10
210 100
211 10
212 10
213 200
214 50
215 10
216 10
217 200
218 200
219 10
220 10
221 200
222 200
223 10
224 10
225 200
226 200
227 10
228 10
229 10
230 10
231 200
232 200
233 10
234 10
235 10
236 10
237 100
238 50
239 10
240 10
241 10
242 200
243 200
244 10
245 200
246 50
247 200
248 100
249 10
250 200
251 10
252 10
253 100
254 50
255 10
256 10
257 10
258 200
259 200
260 100
261 200
262 100
263 50
264 200
265 100
266 50
267 10
268 10
269 10
270 100
271 50
272 10
273 200
274 100
275 50
276 200
277 200
278 50
279 10
280 10
DEPOT_SECTION
1
-1
EOF