Normalized Data/p02_22_normalized_splitx10_0.sol
279 -6 5 7 49 50 48 47 40 39 -8 11 10 9 127 123 128 129 131 130 208 207 203 204 206 205 -17 15 12 13 14 262 260 261 176 173 175 174 172 -18 16 117 116 118 113 115 114 90 88 87 89 -28 26 42 43 41 44 248 246 247 182 180 181 -30 31 29 33 32 45 46 -57 56 54 55 58 -59 61 60 64 63 62 77 73 76 74 72 75 -65 66 52 53 51 216 217 219 218 -68 70 71 67 69 -79 81 80 78 37 36 38 147 149 148 146 99 102 101 100 177 178 -83 34 35 193 192 189 190 191 -85 84 82 86 103 104 107 105 106 251 250 249 202 201 -98 97 112 274 273 272 124 125 126 187 188 -119 135 136 111 109 110 108 132 134 133 -121 120 94 96 95 93 212 214 215 213 138 141 137 139 140 -122 92 91 161 163 162 171 -143 157 159 158 160 24 25 27 236 238 239 237 240 -144 142 145 199 196 200 195 197 194 198 279 276 277 278 210 209 211 -151 150 153 152 167 165 164 168 166 270 269 271 -156 154 155 4 3 2 1 222 223 220 221 -179 242 241 243 169 170 266 268 265 263 264 267 -184 186 183 185 257 259 258 -226 225 224 228 229 227 235 234 230 232 231 233 -245 244 275 20 23 21 22 19 255 252 254 256 253 0 





OBJ=
2263.997
BEST_KNOWN=
0.000